80 3160
1 2 153
1 3 191
1 4 80
1 5 91
1 6 81
1 7 183
1 8 13
1 9 76
1 10 161
1 11 71
1 12 82
1 13 24
1 14 109
1 15 92
1 16 176
1 17 160
1 18 45
1 19 236
1 20 125
1 21 132
1 22 34
1 23 140
1 24 129
1 25 74
1 26 37
1 27 231
1 28 212
1 29 81
1 30 91
1 31 152
1 32 145
1 33 67
1 34 70
1 35 171
1 36 114
1 37 192
1 38 125
1 39 79
1 40 96
1 41 23
1 42 155
1 43 70
1 44 89
1 45 107
1 46 138
1 47 185
1 48 27
1 49 44
1 50 142
1 51 7
1 52 183
1 53 79
1 54 192
1 55 168
1 56 27
1 57 223
1 58 133
1 59 181
1 60 71
1 61 178
1 62 227
1 63 187
1 64 1
1 65 131
1 66 136
1 67 215
1 68 209
1 69 68
1 70 72
1 71 114
1 72 160
1 73 78
1 74 19
1 75 153
1 76 117
1 77 90
1 78 166
1 79 187
1 80 17
2 3 43
2 4 18
2 5 48
2 6 138
2 7 47
2 8 110
2 9 160
2 10 172
2 11 40
2 12 8
2 13 196
2 14 161
2 15 129
2 16 223
2 17 105
2 18 124
2 19 75
2 20 162
2 21 72
2 22 19
2 23 224
2 24 84
2 25 50
2 26 82
2 27 187
2 28 237
2 29 72
2 30 38
2 31 167
2 32 34
2 33 119
2 34 118
2 35 31
2 36 118
2 37 100
2 38 132
2 39 156
2 40 141
2 41 185
2 42 65
2 43 90
2 44 213
2 45 118
2 46 148
2 47 106
2 48 145
2 49 111
2 50 209
2 51 190
2 52 132
2 53 74
2 54 238
2 55 167
2 56 163
2 57 149
2 58 195
2 59 163
2 60 209
2 61 6
2 62 124
2 63 104
2 64 58
2 65 65
2 66 167
2 67 100
2 68 200
2 69 5
2 70 37
2 71 91
2 72 93
2 73 178
2 74 125
2 75 111
2 76 213
2 77 215
2 78 10
2 79 64
2 80 177
3 4 208
3 5 117
3 6 215
3 7 43
3 8 140
3 9 132
3 10 118
3 11 34
3 12 132
3 13 236
3 14 162
3 15 156
3 16 87
3 17 17
3 18 213
3 19 172
3 20 225
3 21 179
3 22 35
3 23 78
3 24 194
3 25 147
3 26 147
3 27 210
3 28 176
3 29 107
3 30 94
3 31 179
3 32 15
3 33 32
3 34 152
3 35 43
3 36 19
3 37 215
3 38 50
3 39 73
3 40 7
3 41 141
3 42 162
3 43 76
3 44 125
3 45 237
3 46 114
3 47 219
3 48 185
3 49 42
3 50 42
3 51 187
3 52 17
3 53 127
3 54 81
3 55 204
3 56 118
3 57 203
3 58 213
3 59 43
3 60 222
3 61 209
3 62 91
3 63 56
3 64 166
3 65 210
3 66 129
3 67 158
3 68 166
3 69 30
3 70 120
3 71 201
3 72 218
3 73 114
3 74 46
3 75 111
3 76 47
3 77 89
3 78 221
3 79 59
3 80 227
4 5 84
4 6 57
4 7 27
4 8 4
4 9 5
4 10 211
4 11 193
4 12 170
4 13 108
4 14 121
4 15 213
4 16 217
4 17 226
4 18 0
4 19 7
4 20 193
4 21 80
4 22 176
4 23 127
4 24 206
4 25 177
4 26 194
4 27 66
4 28 185
4 29 63
4 30 220
4 31 122
4 32 35
4 33 33
4 34 235
4 35 138
4 36 43
4 37 48
4 38 126
4 39 0
4 40 33
4 41 215
4 42 120
4 43 24
4 44 157
4 45 75
4 46 231
4 47 115
4 48 45
4 49 78
4 50 148
4 51 128
4 52 193
4 53 9
4 54 149
4 55 166
4 56 231
4 57 222
4 58 231
4 59 156
4 60 5
4 61 176
4 62 233
4 63 63
4 64 58
4 65 163
4 66 13
4 67 78
4 68 97
4 69 36
4 70 51
4 71 23
4 72 43
4 73 94
4 74 152
4 75 154
4 76 30
4 77 235
4 78 235
4 79 183
4 80 112
5 6 3
5 7 46
5 8 123
5 9 208
5 10 227
5 11 233
5 12 1
5 13 86
5 14 223
5 15 116
5 16 67
5 17 154
5 18 5
5 19 79
5 20 161
5 21 238
5 22 172
5 23 127
5 24 29
5 25 226
5 26 132
5 27 183
5 28 151
5 29 95
5 30 205
5 31 108
5 32 112
5 33 116
5 34 15
5 35 182
5 36 225
5 37 186
5 38 145
5 39 69
5 40 99
5 41 235
5 42 168
5 43 233
5 44 234
5 45 62
5 46 22
5 47 110
5 48 164
5 49 159
5 50 85
5 51 187
5 52 50
5 53 230
5 54 107
5 55 224
5 56 89
5 57 195
5 58 206
5 59 157
5 60 25
5 61 197
5 62 51
5 63 182
5 64 182
5 65 107
5 66 17
5 67 237
5 68 228
5 69 2
5 70 198
5 71 187
5 72 8
5 73 176
5 74 77
5 75 85
5 76 182
5 77 103
5 78 9
5 79 212
5 80 36
6 7 59
6 8 105
6 9 66
6 10 211
6 11 232
6 12 231
6 13 126
6 14 157
6 15 75
6 16 111
6 17 186
6 18 213
6 19 159
6 20 58
6 21 98
6 22 103
6 23 130
6 24 134
6 25 52
6 26 159
6 27 82
6 28 198
6 29 75
6 30 65
6 31 2
6 32 34
6 33 106
6 34 65
6 35 28
6 36 52
6 37 228
6 38 230
6 39 82
6 40 190
6 41 77
6 42 158
6 43 102
6 44 112
6 45 189
6 46 192
6 47 181
6 48 239
6 49 215
6 50 170
6 51 62
6 52 12
6 53 108
6 54 150
6 55 103
6 56 132
6 57 34
6 58 11
6 59 211
6 60 80
6 61 124
6 62 49
6 63 172
6 64 154
6 65 145
6 66 32
6 67 111
6 68 210
6 69 80
6 70 147
6 71 28
6 72 216
6 73 225
6 74 196
6 75 134
6 76 156
6 77 161
6 78 173
6 79 171
6 80 111
7 8 210
7 9 144
7 10 85
7 11 41
7 12 68
7 13 165
7 14 55
7 15 233
7 16 166
7 17 54
7 18 101
7 19 58
7 20 189
7 21 216
7 22 213
7 23 238
7 24 209
7 25 211
7 26 238
7 27 108
7 28 17
7 29 156
7 30 231
7 31 12
7 32 235
7 33 71
7 34 8
7 35 59
7 36 133
7 37 122
7 38 133
7 39 121
7 40 180
7 41 133
7 42 11
7 43 106
7 44 150
7 45 25
7 46 165
7 47 128
7 48 224
7 49 175
7 50 209
7 51 159
7 52 202
7 53 77
7 54 106
7 55 31
7 56 94
7 57 186
7 58 92
7 59 72
7 60 98
7 61 112
7 62 13
7 63 184
7 64 63
7 65 231
7 66 14
7 67 21
7 68 8
7 69 34
7 70 31
7 71 223
7 72 5
7 73 115
7 74 228
7 75 135
7 76 176
7 77 162
7 78 108
7 79 5
7 80 119
8 9 86
8 10 182
8 11 141
8 12 37
8 13 200
8 14 125
8 15 105
8 16 202
8 17 222
8 18 116
8 19 58
8 20 182
8 21 175
8 22 117
8 23 161
8 24 189
8 25 30
8 26 206
8 27 101
8 28 235
8 29 229
8 30 237
8 31 210
8 32 10
8 33 20
8 34 172
8 35 102
8 36 13
8 37 140
8 38 121
8 39 3
8 40 10
8 41 206
8 42 154
8 43 199
8 44 91
8 45 218
8 46 177
8 47 19
8 48 132
8 49 48
8 50 232
8 51 229
8 52 194
8 53 112
8 54 156
8 55 68
8 56 134
8 57 204
8 58 114
8 59 100
8 60 217
8 61 67
8 62 98
8 63 114
8 64 100
8 65 38
8 66 190
8 67 173
8 68 225
8 69 195
8 70 7
8 71 113
8 72 16
8 73 64
8 74 160
8 75 136
8 76 74
8 77 130
8 78 161
8 79 166
8 80 71
9 10 156
9 11 59
9 12 142
9 13 176
9 14 239
9 15 213
9 16 87
9 17 35
9 18 13
9 19 124
9 20 99
9 21 127
9 22 103
9 23 62
9 24 83
9 25 87
9 26 188
9 27 229
9 28 116
9 29 29
9 30 29
9 31 102
9 32 163
9 33 238
9 34 132
9 35 14
9 36 6
9 37 228
9 38 132
9 39 228
9 40 9
9 41 203
9 42 102
9 43 203
9 44 82
9 45 222
9 46 24
9 47 59
9 48 91
9 49 0
9 50 85
9 51 194
9 52 212
9 53 90
9 54 162
9 55 139
9 56 112
9 57 151
9 58 143
9 59 45
9 60 174
9 61 44
9 62 152
9 63 47
9 64 40
9 65 219
9 66 86
9 67 52
9 68 188
9 69 167
9 70 48
9 71 146
9 72 204
9 73 230
9 74 27
9 75 8
9 76 136
9 77 53
9 78 106
9 79 97
9 80 185
10 11 23
10 12 147
10 13 225
10 14 141
10 15 53
10 16 206
10 17 236
10 18 123
10 19 73
10 20 66
10 21 175
10 22 58
10 23 13
10 24 227
10 25 70
10 26 136
10 27 184
10 28 19
10 29 54
10 30 199
10 31 54
10 32 138
10 33 130
10 34 122
10 35 211
10 36 218
10 37 57
10 38 160
10 39 111
10 40 42
10 41 198
10 42 164
10 43 219
10 44 65
10 45 54
10 46 170
10 47 115
10 48 11
10 49 43
10 50 180
10 51 165
10 52 10
10 53 29
10 54 222
10 55 34
10 56 55
10 57 184
10 58 77
10 59 71
10 60 139
10 61 31
10 62 159
10 63 91
10 64 126
10 65 211
10 66 111
10 67 124
10 68 83
10 69 196
10 70 181
10 71 81
10 72 29
10 73 61
10 74 63
10 75 14
10 76 104
10 77 79
10 78 37
10 79 76
10 80 52
11 12 131
11 13 208
11 14 205
11 15 203
11 16 68
11 17 234
11 18 32
11 19 114
11 20 109
11 21 204
11 22 137
11 23 40
11 24 89
11 25 75
11 26 223
11 27 139
11 28 139
11 29 4
11 30 172
11 31 101
11 32 149
11 33 220
11 34 10
11 35 218
11 36 104
11 37 20
11 38 111
11 39 131
11 40 200
11 41 58
11 42 137
11 43 167
11 44 49
11 45 62
11 46 207
11 47 30
11 48 64
11 49 127
11 50 155
11 51 157
11 52 109
11 53 209
11 54 174
11 55 162
11 56 12
11 57 41
11 58 97
11 59 174
11 60 81
11 61 108
11 62 178
11 63 118
11 64 228
11 65 218
11 66 225
11 67 227
11 68 112
11 69 56
11 70 189
11 71 21
11 72 161
11 73 136
11 74 1
11 75 138
11 76 161
11 77 174
11 78 29
11 79 64
11 80 85
12 13 29
12 14 224
12 15 12
12 16 231
12 17 35
12 18 180
12 19 178
12 20 16
12 21 150
12 22 206
12 23 197
12 24 101
12 25 10
12 26 111
12 27 77
12 28 58
12 29 156
12 30 138
12 31 178
12 32 233
12 33 112
12 34 74
12 35 136
12 36 234
12 37 93
12 38 117
12 39 57
12 40 7
12 41 208
12 42 54
12 43 142
12 44 49
12 45 85
12 46 209
12 47 111
12 48 238
12 49 207
12 50 88
12 51 38
12 52 70
12 53 78
12 54 65
12 55 120
12 56 167
12 57 71
12 58 122
12 59 153
12 60 125
12 61 127
12 62 169
12 63 82
12 64 13
12 65 12
12 66 221
12 67 203
12 68 33
12 69 171
12 70 150
12 71 94
12 72 226
12 73 110
12 74 23
12 75 222
12 76 236
12 77 128
12 78 236
12 79 35
12 80 81
13 14 215
13 15 171
13 16 2
13 17 236
13 18 62
13 19 234
13 20 69
13 21 78
13 22 214
13 23 9
13 24 156
13 25 10
13 26 32
13 27 234
13 28 30
13 29 186
13 30 128
13 31 52
13 32 158
13 33 154
13 34 97
13 35 6
13 36 167
13 37 192
13 38 116
13 39 126
13 40 107
13 41 40
13 42 223
13 43 205
13 44 125
13 45 159
13 46 22
13 47 65
13 48 30
13 49 165
13 50 21
13 51 35
13 52 33
13 53 137
13 54 136
13 55 28
13 56 143
13 57 45
13 58 11
13 59 199
13 60 226
13 61 119
13 62 61
13 63 169
13 64 54
13 65 43
13 66 78
13 67 41
13 68 85
13 69 147
13 70 149
13 71 192
13 72 76
13 73 156
13 74 206
13 75 28
13 76 217
13 77 14
13 78 7
13 79 110
13 80 108
14 15 140
14 16 75
14 17 151
14 18 207
14 19 137
14 20 10
14 21 8
14 22 193
14 23 194
14 24 160
14 25 54
14 26 78
14 27 116
14 28 118
14 29 3
14 30 233
14 31 180
14 32 167
14 33 140
14 34 188
14 35 163
14 36 14
14 37 30
14 38 141
14 39 41
14 40 126
14 41 187
14 42 126
14 43 30
14 44 168
14 45 124
14 46 184
14 47 128
14 48 45
14 49 49
14 50 191
14 51 146
14 52 167
14 53 74
14 54 52
14 55 24
14 56 168
14 57 117
14 58 212
14 59 157
14 60 27
14 61 99
14 62 149
14 63 11
14 64 63
14 65 8
14 66 130
14 67 110
14 68 9
14 69 74
14 70 238
14 71 78
14 72 157
14 73 235
14 74 98
14 75 58
14 76 89
14 77 37
14 78 39
14 79 235
14 80 124
15 16 235
15 17 22
15 18 96
15 19 215
15 20 74
15 21 139
15 22 12
15 23 108
15 24 149
15 25 76
15 26 43
15 27 73
15 28 205
15 29 96
15 30 34
15 31 151
15 32 155
15 33 190
15 34 187
15 35 80
15 36 83
15 37 63
15 38 229
15 39 219
15 40 165
15 41 26
15 42 48
15 43 6
15 44 216
15 45 162
15 46 49
15 47 131
15 48 210
15 49 161
15 50 116
15 51 136
15 52 213
15 53 149
15 54 55
15 55 48
15 56 136
15 57 148
15 58 15
15 59 183
15 60 221
15 61 137
15 62 168
15 63 134
15 64 114
15 65 127
15 66 89
15 67 185
15 68 70
15 69 47
15 70 224
15 71 202
15 72 165
15 73 45
15 74 5
15 75 1
15 76 184
15 77 211
15 78 144
15 79 180
15 80 187
16 17 71
16 18 163
16 19 157
16 20 173
16 21 67
16 22 100
16 23 219
16 24 29
16 25 129
16 26 126
16 27 47
16 28 39
16 29 4
16 30 45
16 31 102
16 32 203
16 33 21
16 34 57
16 35 118
16 36 51
16 37 69
16 38 152
16 39 149
16 40 219
16 41 154
16 42 99
16 43 45
16 44 75
16 45 62
16 46 4
16 47 89
16 48 78
16 49 230
16 50 158
16 51 204
16 52 167
16 53 136
16 54 85
16 55 108
16 56 161
16 57 191
16 58 48
16 59 171
16 60 120
16 61 85
16 62 94
16 63 81
16 64 0
16 65 135
16 66 51
16 67 131
16 68 85
16 69 90
16 70 26
16 71 84
16 72 7
16 73 152
16 74 159
16 75 186
16 76 136
16 77 135
16 78 0
16 79 81
16 80 88
17 18 33
17 19 113
17 20 167
17 21 133
17 22 41
17 23 174
17 24 196
17 25 5
17 26 134
17 27 136
17 28 186
17 29 37
17 30 49
17 31 219
17 32 238
17 33 47
17 34 208
17 35 198
17 36 180
17 37 111
17 38 31
17 39 79
17 40 187
17 41 10
17 42 125
17 43 183
17 44 227
17 45 50
17 46 233
17 47 101
17 48 52
17 49 165
17 50 87
17 51 209
17 52 90
17 53 79
17 54 112
17 55 20
17 56 173
17 57 159
17 58 200
17 59 223
17 60 232
17 61 47
17 62 18
17 63 233
17 64 118
17 65 103
17 66 115
17 67 144
17 68 23
17 69 162
17 70 31
17 71 130
17 72 71
17 73 56
17 74 56
17 75 81
17 76 7
17 77 178
17 78 3
17 79 107
17 80 119
18 19 180
18 20 163
18 21 33
18 22 200
18 23 13
18 24 125
18 25 55
18 26 126
18 27 75
18 28 208
18 29 46
18 30 1
18 31 62
18 32 141
18 33 143
18 34 119
18 35 48
18 36 2
18 37 207
18 38 56
18 39 187
18 40 26
18 41 34
18 42 123
18 43 3
18 44 11
18 45 206
18 46 236
18 47 168
18 48 18
18 49 111
18 50 33
18 51 226
18 52 14
18 53 184
18 54 197
18 55 193
18 56 214
18 57 178
18 58 236
18 59 101
18 60 34
18 61 95
18 62 132
18 63 231
18 64 211
18 65 48
18 66 194
18 67 72
18 68 170
18 69 223
18 70 12
18 71 21
18 72 90
18 73 111
18 74 82
18 75 5
18 76 54
18 77 65
18 78 81
18 79 35
18 80 40
19 20 56
19 21 42
19 22 105
19 23 19
19 24 139
19 25 45
19 26 222
19 27 165
19 28 211
19 29 35
19 30 54
19 31 142
19 32 166
19 33 25
19 34 6
19 35 39
19 36 120
19 37 121
19 38 230
19 39 105
19 40 138
19 41 187
19 42 147
19 43 78
19 44 72
19 45 36
19 46 179
19 47 157
19 48 112
19 49 173
19 50 226
19 51 122
19 52 178
19 53 56
19 54 140
19 55 26
19 56 239
19 57 123
19 58 213
19 59 46
19 60 43
19 61 114
19 62 192
19 63 49
19 64 122
19 65 117
19 66 139
19 67 49
19 68 7
19 69 150
19 70 79
19 71 44
19 72 120
19 73 109
19 74 140
19 75 157
19 76 28
19 77 103
19 78 147
19 79 186
19 80 146
20 21 50
20 22 181
20 23 1
20 24 66
20 25 190
20 26 108
20 27 20
20 28 17
20 29 13
20 30 73
20 31 206
20 32 112
20 33 37
20 34 195
20 35 140
20 36 162
20 37 65
20 38 102
20 39 211
20 40 215
20 41 157
20 42 142
20 43 91
20 44 136
20 45 84
20 46 176
20 47 226
20 48 234
20 49 212
20 50 231
20 51 154
20 52 170
20 53 139
20 54 189
20 55 149
20 56 153
20 57 235
20 58 20
20 59 209
20 60 76
20 61 124
20 62 5
20 63 121
20 64 175
20 65 125
20 66 173
20 67 75
20 68 153
20 69 22
20 70 26
20 71 207
20 72 102
20 73 11
20 74 209
20 75 174
20 76 56
20 77 25
20 78 46
20 79 126
20 80 97
21 22 183
21 23 23
21 24 170
21 25 72
21 26 124
21 27 19
21 28 74
21 29 50
21 30 163
21 31 96
21 32 182
21 33 227
21 34 140
21 35 137
21 36 142
21 37 153
21 38 124
21 39 124
21 40 232
21 41 81
21 42 171
21 43 191
21 44 82
21 45 20
21 46 153
21 47 71
21 48 212
21 49 4
21 50 178
21 51 144
21 52 81
21 53 219
21 54 35
21 55 103
21 56 40
21 57 224
21 58 147
21 59 124
21 60 55
21 61 119
21 62 144
21 63 193
21 64 119
21 65 222
21 66 13
21 67 170
21 68 228
21 69 56
21 70 206
21 71 96
21 72 78
21 73 79
21 74 202
21 75 192
21 76 109
21 77 234
21 78 59
21 79 165
21 80 47
22 23 193
22 24 108
22 25 165
22 26 110
22 27 116
22 28 153
22 29 121
22 30 151
22 31 142
22 32 28
22 33 120
22 34 202
22 35 109
22 36 28
22 37 181
22 38 48
22 39 59
22 40 109
22 41 133
22 42 25
22 43 134
22 44 67
22 45 81
22 46 166
22 47 119
22 48 5
22 49 147
22 50 139
22 51 126
22 52 131
22 53 16
22 54 29
22 55 106
22 56 234
22 57 150
22 58 35
22 59 209
22 60 187
22 61 12
22 62 104
22 63 114
22 64 4
22 65 132
22 66 226
22 67 86
22 68 210
22 69 41
22 70 2
22 71 130
22 72 222
22 73 104
22 74 83
22 75 54
22 76 122
22 77 79
22 78 59
22 79 227
22 80 8
23 24 105
23 25 232
23 26 106
23 27 211
23 28 56
23 29 231
23 30 99
23 31 116
23 32 121
23 33 118
23 34 57
23 35 219
23 36 215
23 37 95
23 38 198
23 39 149
23 40 195
23 41 155
23 42 20
23 43 112
23 44 25
23 45 8
23 46 27
23 47 158
23 48 171
23 49 45
23 50 171
23 51 71
23 52 231
23 53 161
23 54 15
23 55 66
23 56 39
23 57 7
23 58 116
23 59 134
23 60 37
23 61 16
23 62 145
23 63 20
23 64 89
23 65 209
23 66 201
23 67 155
23 68 40
23 69 161
23 70 239
23 71 144
23 72 62
23 73 239
23 74 37
23 75 124
23 76 113
23 77 109
23 78 192
23 79 222
23 80 160
24 25 118
24 26 199
24 27 87
24 28 175
24 29 147
24 30 42
24 31 8
24 32 5
24 33 70
24 34 75
24 35 136
24 36 79
24 37 98
24 38 146
24 39 85
24 40 92
24 41 69
24 42 95
24 43 40
24 44 172
24 45 154
24 46 2
24 47 31
24 48 122
24 49 159
24 50 199
24 51 121
24 52 215
24 53 96
24 54 84
24 55 109
24 56 35
24 57 31
24 58 77
24 59 69
24 60 150
24 61 38
24 62 124
24 63 21
24 64 179
24 65 228
24 66 153
24 67 60
24 68 76
24 69 217
24 70 11
24 71 38
24 72 28
24 73 124
24 74 61
24 75 140
24 76 234
24 77 72
24 78 234
24 79 156
24 80 210
25 26 163
25 27 109
25 28 159
25 29 97
25 30 92
25 31 229
25 32 8
25 33 193
25 34 71
25 35 181
25 36 60
25 37 3
25 38 236
25 39 130
25 40 132
25 41 10
25 42 137
25 43 118
25 44 105
25 45 198
25 46 222
25 47 80
25 48 181
25 49 225
25 50 35
25 51 37
25 52 184
25 53 24
25 54 221
25 55 206
25 56 68
25 57 110
25 58 180
25 59 189
25 60 25
25 61 183
25 62 215
25 63 67
25 64 20
25 65 156
25 66 162
25 67 2
25 68 45
25 69 52
25 70 227
25 71 83
25 72 108
25 73 205
25 74 131
25 75 178
25 76 211
25 77 83
25 78 172
25 79 165
25 80 172
26 27 179
26 28 169
26 29 37
26 30 152
26 31 172
26 32 196
26 33 46
26 34 128
26 35 178
26 36 54
26 37 108
26 38 175
26 39 238
26 40 29
26 41 7
26 42 159
26 43 66
26 44 97
26 45 173
26 46 192
26 47 27
26 48 168
26 49 215
26 50 202
26 51 238
26 52 148
26 53 44
26 54 205
26 55 189
26 56 31
26 57 67
26 58 58
26 59 154
26 60 109
26 61 139
26 62 51
26 63 192
26 64 7
26 65 189
26 66 213
26 67 163
26 68 153
26 69 47
26 70 155
26 71 14
26 72 57
26 73 78
26 74 219
26 75 155
26 76 142
26 77 104
26 78 20
26 79 216
26 80 150
27 28 87
27 29 63
27 30 106
27 31 27
27 32 215
27 33 137
27 34 86
27 35 186
27 36 168
27 37 194
27 38 75
27 39 231
27 40 56
27 41 186
27 42 98
27 43 103
27 44 99
27 45 204
27 46 168
27 47 186
27 48 227
27 49 128
27 50 91
27 51 2
27 52 175
27 53 90
27 54 229
27 55 115
27 56 26
27 57 186
27 58 154
27 59 97
27 60 79
27 61 177
27 62 41
27 63 191
27 64 19
27 65 131
27 66 146
27 67 113
27 68 34
27 69 143
27 70 183
27 71 194
27 72 232
27 73 208
27 74 144
27 75 60
27 76 125
27 77 124
27 78 104
27 79 136
27 80 104
28 29 92
28 30 196
28 31 118
28 32 188
28 33 34
28 34 148
28 35 175
28 36 120
28 37 137
28 38 63
28 39 191
28 40 154
28 41 199
28 42 58
28 43 156
28 44 151
28 45 73
28 46 228
28 47 54
28 48 185
28 49 131
28 50 109
28 51 47
28 52 120
28 53 192
28 54 95
28 55 51
28 56 190
28 57 113
28 58 106
28 59 203
28 60 99
28 61 74
28 62 144
28 63 181
28 64 188
28 65 154
28 66 238
28 67 81
28 68 16
28 69 122
28 70 149
28 71 33
28 72 58
28 73 235
28 74 207
28 75 218
28 76 169
28 77 43
28 78 39
28 79 179
28 80 75
29 30 24
29 31 54
29 32 77
29 33 144
29 34 43
29 35 226
29 36 99
29 37 125
29 38 144
29 39 43
29 40 208
29 41 95
29 42 164
29 43 129
29 44 32
29 45 163
29 46 232
29 47 15
29 48 108
29 49 202
29 50 203
29 51 103
29 52 174
29 53 184
29 54 9
29 55 4
29 56 126
29 57 26
29 58 117
29 59 203
29 60 46
29 61 50
29 62 122
29 63 177
29 64 120
29 65 227
29 66 136
29 67 158
29 68 122
29 69 176
29 70 40
29 71 182
29 72 195
29 73 165
29 74 164
29 75 106
29 76 144
29 77 64
29 78 145
29 79 82
29 80 50
30 31 47
30 32 206
30 33 213
30 34 221
30 35 122
30 36 53
30 37 226
30 38 32
30 39 103
30 40 218
30 41 208
30 42 183
30 43 59
30 44 112
30 45 173
30 46 75
30 47 59
30 48 30
30 49 176
30 50 6
30 51 71
30 52 88
30 53 211
30 54 212
30 55 206
30 56 19
30 57 93
30 58 238
30 59 200
30 60 138
30 61 1
30 62 95
30 63 173
30 64 47
30 65 209
30 66 22
30 67 63
30 68 26
30 69 66
30 70 155
30 71 48
30 72 235
30 73 158
30 74 224
30 75 25
30 76 224
30 77 15
30 78 42
30 79 17
30 80 119
31 32 121
31 33 178
31 34 197
31 35 87
31 36 8
31 37 68
31 38 71
31 39 204
31 40 119
31 41 166
31 42 33
31 43 4
31 44 159
31 45 46
31 46 192
31 47 95
31 48 113
31 49 200
31 50 102
31 51 23
31 52 19
31 53 169
31 54 18
31 55 147
31 56 84
31 57 44
31 58 236
31 59 138
31 60 135
31 61 55
31 62 186
31 63 131
31 64 95
31 65 169
31 66 227
31 67 126
31 68 167
31 69 228
31 70 61
31 71 18
31 72 21
31 73 115
31 74 34
31 75 225
31 76 237
31 77 26
31 78 163
31 79 90
31 80 21
32 33 196
32 34 234
32 35 92
32 36 201
32 37 237
32 38 125
32 39 98
32 40 194
32 41 74
32 42 72
32 43 222
32 44 96
32 45 66
32 46 150
32 47 119
32 48 62
32 49 167
32 50 187
32 51 212
32 52 125
32 53 104
32 54 143
32 55 189
32 56 47
32 57 199
32 58 179
32 59 154
32 60 114
32 61 123
32 62 232
32 63 52
32 64 57
32 65 139
32 66 224
32 67 138
32 68 52
32 69 158
32 70 224
32 71 131
32 72 236
32 73 109
32 74 196
32 75 202
32 76 104
32 77 197
32 78 205
32 79 208
32 80 7
33 34 121
33 35 192
33 36 112
33 37 236
33 38 86
33 39 130
33 40 205
33 41 75
33 42 151
33 43 193
33 44 142
33 45 68
33 46 98
33 47 8
33 48 159
33 49 49
33 50 137
33 51 125
33 52 139
33 53 141
33 54 187
33 55 169
33 56 187
33 57 60
33 58 135
33 59 123
33 60 119
33 61 86
33 62 17
33 63 123
33 64 4
33 65 231
33 66 41
33 67 79
33 68 19
33 69 83
33 70 172
33 71 53
33 72 40
33 73 51
33 74 117
33 75 126
33 76 150
33 77 183
33 78 150
33 79 150
33 80 230
34 35 174
34 36 138
34 37 106
34 38 176
34 39 231
34 40 142
34 41 70
34 42 137
34 43 178
34 44 63
34 45 72
34 46 26
34 47 182
34 48 23
34 49 177
34 50 169
34 51 41
34 52 28
34 53 200
34 54 172
34 55 117
34 56 138
34 57 83
34 58 207
34 59 212
34 60 52
34 61 75
34 62 35
34 63 220
34 64 53
34 65 145
34 66 116
34 67 155
34 68 78
34 69 107
34 70 70
34 71 127
34 72 106
34 73 31
34 74 54
34 75 161
34 76 12
34 77 50
34 78 5
34 79 100
34 80 196
35 36 124
35 37 68
35 38 24
35 39 106
35 40 49
35 41 132
35 42 143
35 43 180
35 44 174
35 45 235
35 46 233
35 47 170
35 48 97
35 49 109
35 50 25
35 51 237
35 52 182
35 53 140
35 54 88
35 55 94
35 56 4
35 57 234
35 58 194
35 59 131
35 60 136
35 61 55
35 62 230
35 63 34
35 64 31
35 65 200
35 66 67
35 67 71
35 68 37
35 69 26
35 70 31
35 71 180
35 72 206
35 73 148
35 74 113
35 75 150
35 76 112
35 77 24
35 78 129
35 79 84
35 80 67
36 37 154
36 38 134
36 39 16
36 40 3
36 41 219
36 42 92
36 43 88
36 44 168
36 45 88
36 46 205
36 47 95
36 48 208
36 49 40
36 50 198
36 51 55
36 52 36
36 53 150
36 54 101
36 55 61
36 56 212
36 57 52
36 58 3
36 59 46
36 60 232
36 61 164
36 62 122
36 63 210
36 64 49
36 65 163
36 66 158
36 67 50
36 68 110
36 69 165
36 70 10
36 71 183
36 72 6
36 73 172
36 74 97
36 75 56
36 76 225
36 77 118
36 78 121
36 79 128
36 80 121
37 38 80
37 39 174
37 40 58
37 41 206
37 42 33
37 43 209
37 44 27
37 45 182
37 46 43
37 47 103
37 48 27
37 49 212
37 50 173
37 51 113
37 52 34
37 53 220
37 54 0
37 55 36
37 56 132
37 57 185
37 58 99
37 59 105
37 60 178
37 61 55
37 62 212
37 63 69
37 64 118
37 65 88
37 66 59
37 67 58
37 68 146
37 69 122
37 70 32
37 71 222
37 72 183
37 73 114
37 74 154
37 75 184
37 76 144
37 77 108
37 78 20
37 79 79
37 80 57
38 39 53
38 40 93
38 41 202
38 42 14
38 43 185
38 44 149
38 45 148
38 46 142
38 47 234
38 48 209
38 49 87
38 50 91
38 51 23
38 52 87
38 53 156
38 54 187
38 55 3
38 56 187
38 57 85
38 58 141
38 59 96
38 60 117
38 61 101
38 62 169
38 63 86
38 64 233
38 65 154
38 66 142
38 67 50
38 68 215
38 69 32
38 70 46
38 71 59
38 72 57
38 73 179
38 74 83
38 75 29
38 76 129
38 77 224
38 78 195
38 79 24
38 80 237
39 40 89
39 41 195
39 42 44
39 43 224
39 44 142
39 45 57
39 46 25
39 47 37
39 48 101
39 49 161
39 50 4
39 51 101
39 52 160
39 53 125
39 54 196
39 55 97
39 56 223
39 57 77
39 58 178
39 59 157
39 60 82
39 61 17
39 62 163
39 63 229
39 64 201
39 65 137
39 66 139
39 67 160
39 68 114
39 69 16
39 70 25
39 71 170
39 72 107
39 73 190
39 74 204
39 75 121
39 76 126
39 77 24
39 78 196
39 79 22
39 80 87
40 41 40
40 42 106
40 43 62
40 44 59
40 45 179
40 46 99
40 47 182
40 48 201
40 49 185
40 50 123
40 51 114
40 52 126
40 53 162
40 54 11
40 55 153
40 56 239
40 57 104
40 58 32
40 59 57
40 60 154
40 61 218
40 62 24
40 63 92
40 64 26
40 65 136
40 66 2
40 67 213
40 68 137
40 69 52
40 70 36
40 71 102
40 72 111
40 73 228
40 74 52
40 75 113
40 76 88
40 77 117
40 78 45
40 79 72
40 80 122
41 42 77
41 43 190
41 44 76
41 45 48
41 46 217
41 47 209
41 48 221
41 49 96
41 50 141
41 51 194
41 52 46
41 53 123
41 54 88
41 55 46
41 56 125
41 57 165
41 58 140
41 59 184
41 60 206
41 61 207
41 62 71
41 63 83
41 64 56
41 65 220
41 66 133
41 67 101
41 68 66
41 69 12
41 70 70
41 71 19
41 72 165
41 73 87
41 74 210
41 75 179
41 76 62
41 77 108
41 78 148
41 79 93
41 80 224
42 43 143
42 44 6
42 45 61
42 46 50
42 47 20
42 48 49
42 49 34
42 50 111
42 51 230
42 52 109
42 53 17
42 54 99
42 55 118
42 56 171
42 57 216
42 58 207
42 59 232
42 60 176
42 61 236
42 62 65
42 63 4
42 64 177
42 65 205
42 66 85
42 67 6
42 68 163
42 69 227
42 70 165
42 71 116
42 72 32
42 73 124
42 74 177
42 75 178
42 76 181
42 77 89
42 78 27
42 79 62
42 80 83
43 44 85
43 45 130
43 46 130
43 47 107
43 48 32
43 49 155
43 50 150
43 51 147
43 52 80
43 53 67
43 54 86
43 55 151
43 56 48
43 57 27
43 58 172
43 59 127
43 60 137
43 61 230
43 62 139
43 63 71
43 64 9
43 65 5
43 66 35
43 67 108
43 68 92
43 69 19
43 70 138
43 71 99
43 72 54
43 73 21
43 74 11
43 75 134
43 76 60
43 77 79
43 78 14
43 79 6
43 80 136
44 45 128
44 46 166
44 47 222
44 48 13
44 49 62
44 50 194
44 51 234
44 52 40
44 53 95
44 54 10
44 55 173
44 56 59
44 57 18
44 58 210
44 59 165
44 60 213
44 61 35
44 62 179
44 63 151
44 64 207
44 65 174
44 66 201
44 67 167
44 68 93
44 69 134
44 70 184
44 71 69
44 72 142
44 73 84
44 74 228
44 75 46
44 76 197
44 77 155
44 78 35
44 79 12
44 80 237
45 46 3
45 47 86
45 48 150
45 49 30
45 50 174
45 51 200
45 52 187
45 53 2
45 54 81
45 55 220
45 56 222
45 57 65
45 58 211
45 59 0
45 60 99
45 61 94
45 62 130
45 63 224
45 64 175
45 65 139
45 66 235
45 67 131
45 68 35
45 69 194
45 70 79
45 71 179
45 72 210
45 73 140
45 74 194
45 75 152
45 76 4
45 77 149
45 78 58
45 79 47
45 80 139
46 47 150
46 48 79
46 49 112
46 50 217
46 51 55
46 52 3
46 53 108
46 54 160
46 55 53
46 56 26
46 57 155
46 58 34
46 59 57
46 60 130
46 61 175
46 62 211
46 63 190
46 64 165
46 65 85
46 66 36
46 67 136
46 68 207
46 69 44
46 70 69
46 71 149
46 72 167
46 73 190
46 74 14
46 75 90
46 76 155
46 77 160
46 78 90
46 79 185
46 80 176
47 48 220
47 49 102
47 50 91
47 51 181
47 52 4
47 53 62
47 54 46
47 55 130
47 56 205
47 57 76
47 58 103
47 59 161
47 60 198
47 61 127
47 62 154
47 63 77
47 64 167
47 65 154
47 66 160
47 67 209
47 68 98
47 69 214
47 70 188
47 71 186
47 72 174
47 73 225
47 74 99
47 75 158
47 76 173
47 77 191
47 78 13
47 79 237
47 80 132
48 49 215
48 50 24
48 51 13
48 52 56
48 53 8
48 54 174
48 55 6
48 56 208
48 57 47
48 58 168
48 59 5
48 60 217
48 61 96
48 62 43
48 63 174
48 64 47
48 65 33
48 66 30
48 67 82
48 68 4
48 69 207
48 70 124
48 71 238
48 72 92
48 73 35
48 74 217
48 75 35
48 76 213
48 77 195
48 78 25
48 79 120
48 80 130
49 50 54
49 51 13
49 52 66
49 53 230
49 54 126
49 55 169
49 56 104
49 57 124
49 58 55
49 59 172
49 60 56
49 61 123
49 62 3
49 63 55
49 64 17
49 65 16
49 66 28
49 67 145
49 68 19
49 69 7
49 70 205
49 71 217
49 72 3
49 73 53
49 74 76
49 75 50
49 76 141
49 77 84
49 78 141
49 79 172
49 80 42
50 51 7
50 52 139
50 53 88
50 54 119
50 55 147
50 56 91
50 57 233
50 58 56
50 59 179
50 60 26
50 61 209
50 62 71
50 63 29
50 64 230
50 65 64
50 66 91
50 67 6
50 68 85
50 69 123
50 70 23
50 71 93
50 72 167
50 73 57
50 74 103
50 75 197
50 76 28
50 77 63
50 78 165
50 79 40
50 80 51
51 52 115
51 53 78
51 54 205
51 55 60
51 56 235
51 57 78
51 58 146
51 59 228
51 60 3
51 61 68
51 62 29
51 63 16
51 64 151
51 65 110
51 66 65
51 67 50
51 68 174
51 69 57
51 70 181
51 71 227
51 72 13
51 73 146
51 74 91
51 75 182
51 76 168
51 77 154
51 78 39
51 79 152
51 80 229
52 53 72
52 54 134
52 55 102
52 56 77
52 57 20
52 58 227
52 59 38
52 60 54
52 61 16
52 62 197
52 63 42
52 64 156
52 65 40
52 66 199
52 67 74
52 68 228
52 69 95
52 70 197
52 71 107
52 72 173
52 73 29
52 74 144
52 75 220
52 76 169
52 77 175
52 78 222
52 79 44
52 80 174
53 54 65
53 55 207
53 56 141
53 57 226
53 58 111
53 59 238
53 60 229
53 61 93
53 62 109
53 63 210
53 64 91
53 65 198
53 66 165
53 67 128
53 68 50
53 69 25
53 70 7
53 71 5
53 72 31
53 73 222
53 74 78
53 75 156
53 76 187
53 77 195
53 78 134
53 79 166
53 80 186
54 55 179
54 56 133
54 57 182
54 58 148
54 59 157
54 60 40
54 61 41
54 62 79
54 63 229
54 64 127
54 65 185
54 66 142
54 67 142
54 68 38
54 69 149
54 70 100
54 71 177
54 72 67
54 73 81
54 74 170
54 75 165
54 76 101
54 77 23
54 78 109
54 79 69
54 80 36
55 56 238
55 57 16
55 58 6
55 59 57
55 60 27
55 61 5
55 62 231
55 63 29
55 64 28
55 65 80
55 66 124
55 67 61
55 68 17
55 69 72
55 70 81
55 71 51
55 72 200
55 73 169
55 74 117
55 75 116
55 76 18
55 77 33
55 78 39
55 79 131
55 80 16
56 57 122
56 58 100
56 59 35
56 60 119
56 61 216
56 62 123
56 63 47
56 64 75
56 65 225
56 66 118
56 67 129
56 68 30
56 69 48
56 70 107
56 71 90
56 72 61
56 73 182
56 74 143
56 75 230
56 76 45
56 77 110
56 78 207
56 79 115
56 80 109
57 58 28
57 59 32
57 60 128
57 61 90
57 62 131
57 63 205
57 64 206
57 65 28
57 66 224
57 67 88
57 68 63
57 69 209
57 70 104
57 71 14
57 72 78
57 73 215
57 74 186
57 75 142
57 76 41
57 77 168
57 78 98
57 79 46
57 80 26
58 59 32
58 60 146
58 61 84
58 62 141
58 63 119
58 64 217
58 65 5
58 66 11
58 67 151
58 68 41
58 69 215
58 70 62
58 71 132
58 72 234
58 73 118
58 74 43
58 75 137
58 76 143
58 77 40
58 78 152
58 79 185
58 80 78
59 60 156
59 61 70
59 62 6
59 63 108
59 64 52
59 65 23
59 66 129
59 67 106
59 68 223
59 69 224
59 70 47
59 71 30
59 72 129
59 73 3
59 74 13
59 75 53
59 76 50
59 77 50
59 78 82
59 79 173
59 80 182
60 61 86
60 62 188
60 63 168
60 64 29
60 65 6
60 66 11
60 67 133
60 68 239
60 69 148
60 70 87
60 71 203
60 72 9
60 73 140
60 74 166
60 75 76
60 76 172
60 77 114
60 78 115
60 79 22
60 80 159
61 62 55
61 63 195
61 64 190
61 65 147
61 66 158
61 67 136
61 68 63
61 69 212
61 70 18
61 71 230
61 72 173
61 73 9
61 74 177
61 75 146
61 76 43
61 77 160
61 78 33
61 79 111
61 80 156
62 63 201
62 64 168
62 65 0
62 66 92
62 67 44
62 68 62
62 69 37
62 70 10
62 71 25
62 72 133
62 73 66
62 74 54
62 75 42
62 76 185
62 77 188
62 78 136
62 79 3
62 80 129
63 64 95
63 65 175
63 66 46
63 67 222
63 68 123
63 69 13
63 70 9
63 71 59
63 72 169
63 73 103
63 74 109
63 75 197
63 76 37
63 77 9
63 78 103
63 79 152
63 80 124
64 65 25
64 66 0
64 67 35
64 68 200
64 69 198
64 70 223
64 71 51
64 72 143
64 73 122
64 74 174
64 75 199
64 76 71
64 77 109
64 78 218
64 79 36
64 80 8
65 66 108
65 67 30
65 68 230
65 69 98
65 70 94
65 71 115
65 72 216
65 73 215
65 74 126
65 75 82
65 76 238
65 77 219
65 78 53
65 79 213
65 80 160
66 67 214
66 68 153
66 69 203
66 70 221
66 71 51
66 72 42
66 73 163
66 74 159
66 75 30
66 76 203
66 77 30
66 78 121
66 79 59
66 80 28
67 68 152
67 69 219
67 70 56
67 71 167
67 72 29
67 73 152
67 74 219
67 75 14
67 76 48
67 77 210
67 78 63
67 79 104
67 80 168
68 69 225
68 70 220
68 71 103
68 72 98
68 73 141
68 74 185
68 75 39
68 76 60
68 77 212
68 78 83
68 79 191
68 80 119
69 70 135
69 71 99
69 72 229
69 73 66
69 74 234
69 75 155
69 76 102
69 77 234
69 78 134
69 79 227
69 80 21
70 71 60
70 72 131
70 73 51
70 74 100
70 75 27
70 76 185
70 77 110
70 78 203
70 79 102
70 80 86
71 72 155
71 73 227
71 74 196
71 75 120
71 76 204
71 77 237
71 78 99
71 79 169
71 80 58
72 73 144
72 74 72
72 75 132
72 76 93
72 77 99
72 78 179
72 79 185
72 80 69
73 74 129
73 75 146
73 76 157
73 77 115
73 78 221
73 79 57
73 80 31
74 75 58
74 76 150
74 77 137
74 78 2
74 79 74
74 80 21
75 76 116
75 77 40
75 78 171
75 79 194
75 80 193
76 77 66
76 78 94
76 79 100
76 80 88
77 78 175
77 79 232
77 80 208
78 79 194
78 80 140
79 80 152
